n = 200;
m = 5;
p = [100, 0, 0, 0, 100];
v = [0.9, 0.1, 0.1, 0.1, 0.9];
ce = [20.5, 15.3, 25.7, 18.4, 22.9];
c = [|0, 3.2, 4.8, 2.7, 3.6|3.2, 0, 5.1, 3.3, 4.2|4.8, 5.1, 0, 2.9, 3.4|2.7, 3.3, 2.9, 0, 4.5|3.6, 4.2, 3.4, 4.5, 0|];
ct = 90;
maxM = 100;
